20 2
1 2 10 8 10 2 2
2 2 10 8 10 2 4
# Output:
98 3
# List of optimal solutions:
2 8
1 9
0 10